p cnf 869 554
c ind 1 2 3 4 5 6 7 8 9 10 11 12 13 14 15 16 17 18 19 20 21 22 23 24 25 26 27 0
-4 -1 0
-7 -1 0
-1 -4 0
-7 -4 0
-1 -7 0
-4 -7 0
-13 -10 0
-16 -10 0
-10 -13 0
-16 -13 0
-10 -16 0
-13 -16 0
-22 -19 0
-25 -19 0
-19 -22 0
-25 -22 0
-19 -25 0
-22 -25 0
-5 -2 0
-8 -2 0
-2 -5 0
-8 -5 0
-2 -8 0
-5 -8 0
-14 -11 0
-17 -11 0
-11 -14 0
-17 -14 0
-11 -17 0
-14 -17 0
-23 -20 0
-26 -20 0
-20 -23 0
-26 -23 0
-20 -26 0
-23 -26 0
-6 -3 0
-9 -3 0
-3 -6 0
-9 -6 0
-3 -9 0
-6 -9 0
-15 -12 0
-18 -12 0
-12 -15 0
-18 -15 0
-12 -18 0
-15 -18 0
-24 -21 0
-27 -21 0
-21 -24 0
-27 -24 0
-21 -27 0
-24 -27 0
-10 -1 0
-19 -1 0
-1 -10 0
-19 -10 0
-1 -19 0
-10 -19 0
-13 -4 0
-22 -4 0
-4 -13 0
-22 -13 0
-4 -22 0
-13 -22 0
-16 -7 0
-25 -7 0
-7 -16 0
-25 -16 0
-7 -25 0
-16 -25 0
-11 -2 0
-20 -2 0
-2 -11 0
-20 -11 0
-2 -20 0
-11 -20 0
-14 -5 0
-23 -5 0
-5 -14 0
-23 -14 0
-5 -23 0
-14 -23 0
-17 -8 0
-26 -8 0
-8 -17 0
-26 -17 0
-8 -26 0
-17 -26 0
-12 -3 0
-21 -3 0
-3 -12 0
-21 -12 0
-3 -21 0
-12 -21 0
-15 -6 0
-24 -6 0
-6 -15 0
-24 -15 0
-6 -24 0
-15 -24 0
-18 -9 0
-27 -9 0
-9 -18 0
-27 -18 0
-9 -27 0
-18 -27 0
1 2 3 0
-1 -2 0
-1 -3 0
-2 -3 0
4 5 6 0
-4 -5 0
-4 -6 0
-5 -6 0
7 8 9 0
-7 -8 0
-7 -9 0
-8 -9 0
10 11 12 0
-10 -11 0
-10 -12 0
-11 -12 0
13 14 15 0
-13 -14 0
-13 -15 0
-14 -15 0
16 17 18 0
-16 -17 0
-16 -18 0
-17 -18 0
19 20 21 0
-19 -20 0
-19 -21 0
-20 -21 0
22 23 24 0
-22 -23 0
-22 -24 0
-23 -24 0
25 26 27 0
-25 -26 0
-25 -27 0
-26 -27 0
-792 -1 25 26 0
-792 -2 25 0
-792 -3 0
-793 -1 27 0
-793 -2 26 0
-793 -3 25 0
792 793 0
792 794 0
-794 795 796 0
-794 795 797 0
-797 798 799 0
-797 798 800 0
-800 801 802 0
-800 801 803 0
-803 804 805 0
-803 804 806 0
-806 807 808 0
-806 807 809 0
-809 810 811 0
-809 810 812 0
-812 813 814 0
-812 813 815 0
-815 816 817 0
-795 -4 22 23 0
-795 -5 22 0
-795 -6 0
-796 -4 24 0
-796 -5 23 0
-796 -6 22 0
792 793 0
792 794 0
-794 795 796 0
-794 795 797 0
-797 798 799 0
-797 798 800 0
-800 801 802 0
-800 801 803 0
-803 804 805 0
-803 804 806 0
-806 807 808 0
-806 807 809 0
-809 810 811 0
-809 810 812 0
-812 813 814 0
-812 813 815 0
-815 816 817 0
-798 -7 19 20 0
-798 -8 19 0
-798 -9 0
-799 -7 21 0
-799 -8 20 0
-799 -9 19 0
792 793 0
792 794 0
-794 795 796 0
-794 795 797 0
-797 798 799 0
-797 798 800 0
-800 801 802 0
-800 801 803 0
-803 804 805 0
-803 804 806 0
-806 807 808 0
-806 807 809 0
-809 810 811 0
-809 810 812 0
-812 813 814 0
-812 813 815 0
-815 816 817 0
-801 -10 16 17 0
-801 -11 16 0
-801 -12 0
-802 -10 18 0
-802 -11 17 0
-802 -12 16 0
792 793 0
792 794 0
-794 795 796 0
-794 795 797 0
-797 798 799 0
-797 798 800 0
-800 801 802 0
-800 801 803 0
-803 804 805 0
-803 804 806 0
-806 807 808 0
-806 807 809 0
-809 810 811 0
-809 810 812 0
-812 813 814 0
-812 813 815 0
-815 816 817 0
-804 13 0
-805 14 0
792 793 0
792 794 0
-794 795 796 0
-794 795 797 0
-797 798 799 0
-797 798 800 0
-800 801 802 0
-800 801 803 0
-803 804 805 0
-803 804 806 0
-806 807 808 0
-806 807 809 0
-809 810 811 0
-809 810 812 0
-812 813 814 0
-812 813 815 0
-815 816 817 0
-807 -16 10 11 0
-807 -17 10 0
-807 -18 0
-808 -16 12 0
-808 -17 11 0
-808 -18 10 0
792 793 0
792 794 0
-794 795 796 0
-794 795 797 0
-797 798 799 0
-797 798 800 0
-800 801 802 0
-800 801 803 0
-803 804 805 0
-803 804 806 0
-806 807 808 0
-806 807 809 0
-809 810 811 0
-809 810 812 0
-812 813 814 0
-812 813 815 0
-815 816 817 0
-810 -19 7 8 0
-810 -20 7 0
-810 -21 0
-811 -19 9 0
-811 -20 8 0
-811 -21 7 0
792 793 0
792 794 0
-794 795 796 0
-794 795 797 0
-797 798 799 0
-797 798 800 0
-800 801 802 0
-800 801 803 0
-803 804 805 0
-803 804 806 0
-806 807 808 0
-806 807 809 0
-809 810 811 0
-809 810 812 0
-812 813 814 0
-812 813 815 0
-815 816 817 0
-813 -22 4 5 0
-813 -23 4 0
-813 -24 0
-814 -22 6 0
-814 -23 5 0
-814 -24 4 0
792 793 0
792 794 0
-794 795 796 0
-794 795 797 0
-797 798 799 0
-797 798 800 0
-800 801 802 0
-800 801 803 0
-803 804 805 0
-803 804 806 0
-806 807 808 0
-806 807 809 0
-809 810 811 0
-809 810 812 0
-812 813 814 0
-812 813 815 0
-815 816 817 0
-816 -25 1 2 0
-816 -26 1 0
-816 -27 0
-817 -25 3 0
-817 -26 2 0
-817 -27 1 0
792 793 0
792 794 0
-794 795 796 0
-794 795 797 0
-797 798 799 0
-797 798 800 0
-800 801 802 0
-800 801 803 0
-803 804 805 0
-803 804 806 0
-806 807 808 0
-806 807 809 0
-809 810 811 0
-809 810 812 0
-812 813 814 0
-812 813 815 0
-815 816 817 0
-844 -1 13 15 0
-844 -2 13 0
-844 -3 0
-845 -1 14 0
-845 -2 15 0
-845 -3 13 0
844 845 0
844 846 0
-846 847 848 0
-846 847 849 0
-849 850 851 0
-849 850 852 0
-852 853 854 0
-852 853 855 0
-855 856 857 0
-855 856 858 0
-858 859 860 0
-858 859 861 0
-861 862 863 0
-861 862 864 0
-864 865 866 0
-864 865 867 0
-867 868 869 0
-847 -4 16 18 0
-847 -5 16 0
-847 -6 0
-848 -4 17 0
-848 -5 18 0
-848 -6 16 0
844 845 0
844 846 0
-846 847 848 0
-846 847 849 0
-849 850 851 0
-849 850 852 0
-852 853 854 0
-852 853 855 0
-855 856 857 0
-855 856 858 0
-858 859 860 0
-858 859 861 0
-861 862 863 0
-861 862 864 0
-864 865 866 0
-864 865 867 0
-867 868 869 0
-850 -7 10 12 0
-850 -8 10 0
-850 -9 0
-851 -7 11 0
-851 -8 12 0
-851 -9 10 0
844 845 0
844 846 0
-846 847 848 0
-846 847 849 0
-849 850 851 0
-849 850 852 0
-852 853 854 0
-852 853 855 0
-855 856 857 0
-855 856 858 0
-858 859 860 0
-858 859 861 0
-861 862 863 0
-861 862 864 0
-864 865 866 0
-864 865 867 0
-867 868 869 0
-853 -10 22 24 0
-853 -11 22 0
-853 -12 0
-854 -10 23 0
-854 -11 24 0
-854 -12 22 0
844 845 0
844 846 0
-846 847 848 0
-846 847 849 0
-849 850 851 0
-849 850 852 0
-852 853 854 0
-852 853 855 0
-855 856 857 0
-855 856 858 0
-858 859 860 0
-858 859 861 0
-861 862 863 0
-861 862 864 0
-864 865 866 0
-864 865 867 0
-867 868 869 0
-856 -13 25 27 0
-856 -14 25 0
-856 -15 0
-857 -13 26 0
-857 -14 27 0
-857 -15 25 0
844 845 0
844 846 0
-846 847 848 0
-846 847 849 0
-849 850 851 0
-849 850 852 0
-852 853 854 0
-852 853 855 0
-855 856 857 0
-855 856 858 0
-858 859 860 0
-858 859 861 0
-861 862 863 0
-861 862 864 0
-864 865 866 0
-864 865 867 0
-867 868 869 0
-859 -16 19 21 0
-859 -17 19 0
-859 -18 0
-860 -16 20 0
-860 -17 21 0
-860 -18 19 0
844 845 0
844 846 0
-846 847 848 0
-846 847 849 0
-849 850 851 0
-849 850 852 0
-852 853 854 0
-852 853 855 0
-855 856 857 0
-855 856 858 0
-858 859 860 0
-858 859 861 0
-861 862 863 0
-861 862 864 0
-864 865 866 0
-864 865 867 0
-867 868 869 0
-862 -19 4 6 0
-862 -20 4 0
-862 -21 0
-863 -19 5 0
-863 -20 6 0
-863 -21 4 0
844 845 0
844 846 0
-846 847 848 0
-846 847 849 0
-849 850 851 0
-849 850 852 0
-852 853 854 0
-852 853 855 0
-855 856 857 0
-855 856 858 0
-858 859 860 0
-858 859 861 0
-861 862 863 0
-861 862 864 0
-864 865 866 0
-864 865 867 0
-867 868 869 0
-865 -22 7 9 0
-865 -23 7 0
-865 -24 0
-866 -22 8 0
-866 -23 9 0
-866 -24 7 0
844 845 0
844 846 0
-846 847 848 0
-846 847 849 0
-849 850 851 0
-849 850 852 0
-852 853 854 0
-852 853 855 0
-855 856 857 0
-855 856 858 0
-858 859 860 0
-858 859 861 0
-861 862 863 0
-861 862 864 0
-864 865 866 0
-864 865 867 0
-867 868 869 0
-868 -25 1 3 0
-868 -26 1 0
-868 -27 0
-869 -25 2 0
-869 -26 3 0
-869 -27 1 0
844 845 0
844 846 0
-846 847 848 0
-846 847 849 0
-849 850 851 0
-849 850 852 0
-852 853 854 0
-852 853 855 0
-855 856 857 0
-855 856 858 0
-858 859 860 0
-858 859 861 0
-861 862 863 0
-861 862 864 0
-864 865 866 0
-864 865 867 0
-867 868 869 0
